; PUSH cw_2 SWAP1 DUP3 SWAP1 DUP3 DUP1 => DUP2 PUSH cw_2 SWAP2 PUSH cw_2 DUP4
(set-option :produce-proofs true)
; 
(set-info :status unknown)
(declare-fun storage_t ((_ BitVec 256) (_ BitVec 256) (_ BitVec 256) Int (_ BitVec 256)) (_ BitVec 256))
(declare-fun w_2 () (_ BitVec 256))
(declare-fun storage_s ((_ BitVec 256) (_ BitVec 256) (_ BitVec 256) Int (_ BitVec 256)) (_ BitVec 256))
(declare-fun exc_halt_t (Int) Bool)
(declare-fun exc_halt_s (Int) Bool)
(declare-fun sc_t (Int) (_ BitVec 6))
(declare-fun stack_t ((_ BitVec 256) (_ BitVec 256) (_ BitVec 256) Int (_ BitVec 6)) (_ BitVec 256))
(declare-fun stack_s ((_ BitVec 256) (_ BitVec 256) (_ BitVec 256) Int (_ BitVec 6)) (_ BitVec 256))
(declare-fun sc_s (Int) (_ BitVec 6))
(declare-fun used_gas_t ((_ BitVec 256) (_ BitVec 256) (_ BitVec 256) Int) Int)
(declare-fun used_gas_s ((_ BitVec 256) (_ BitVec 256) (_ BitVec 256) Int) Int)
(assert
 (exists ((x_0 (_ BitVec 256)) (x_1 (_ BitVec 256)) )(let (($x4152 (forall ((w (_ BitVec 256)) )(let ((?x8762 (storage_t x_0 x_1 w_2 5 w)))
 (let ((?x2899 (storage_s x_0 x_1 w_2 6 w)))
 (= ?x2899 ?x8762))))
 ))
 (let (($x1885 (exc_halt_t 5)))
 (let (($x772 (exc_halt_s 6)))
 (let (($x11108 (= $x772 $x1885)))
 (let (($x7446 (forall ((n (_ BitVec 6)) )(let ((?x5608 (stack_t x_0 x_1 w_2 5 n)))
 (let ((?x1297 (stack_s x_0 x_1 w_2 6 n)))
 (let (($x2788 (= ?x1297 ?x5608)))
 (or $x2788 (bvsle (sc_t 5) n))))))
 ))
 (let ((?x8961 (sc_t 5)))
 (let ((?x926 (sc_s 6)))
 (let (($x5889 (= ?x926 ?x8961)))
 (let ((?x11438 (used_gas_t x_0 x_1 w_2 0)))
 (let ((?x4849 (used_gas_s x_0 x_1 w_2 0)))
 (let (($x8026 (= ?x4849 ?x11438)))
 (let (($x7221 (forall ((w (_ BitVec 256)) )(let ((?x11489 (storage_t x_0 x_1 w_2 0 w)))
 (let ((?x2396 (storage_s x_0 x_1 w_2 0 w)))
 (= ?x2396 ?x11489))))
 ))
 (let (($x56 (exc_halt_t 0)))
 (let (($x57 (exc_halt_s 0)))
 (let (($x58 (= $x57 $x56)))
 (let (($x2835 (forall ((n (_ BitVec 6)) )(let ((?x63 (sc_t 0)))
 (let (($x8381 (bvsle ?x63 n)))
 (let ((?x523 (stack_t x_0 x_1 w_2 0 n)))
 (let ((?x9081 (stack_s x_0 x_1 w_2 0 n)))
 (let (($x5591 (= ?x9081 ?x523)))
 (or $x5591 $x8381)))))))
 ))
 (let ((?x63 (sc_t 0)))
 (let ((?x72 (sc_s 0)))
 (let (($x73 (= ?x72 ?x63)))
 (let (($x7854 (exc_halt_t 4)))
 (let (($x150 (or (not (= ((_ extract 6 6) (bvadd (_ bv1 7) (concat (_ bv0 1) (sc_t 4)))) (_ bv0 1))) $x7854 (not (bvsle (_ bv0 6) (bvadd (_ bv60 6) (sc_t 4)))))))
 (let (($x3673 (forall ((w (_ BitVec 256)) )(let ((?x4195 (storage_t x_0 x_1 w_2 4 w)))
 (let ((?x8762 (storage_t x_0 x_1 w_2 5 w)))
 (= ?x8762 ?x4195))))
 ))
 (let (($x199 (forall ((n (_ BitVec 6)) )(let ((?x9880 (stack_t x_0 x_1 w_2 4 n)))
 (let ((?x5608 (stack_t x_0 x_1 w_2 5 n)))
 (or (= ?x5608 ?x9880) (bvsle (bvadd (_ bv60 6) (sc_t 4)) n)))))
 ))
 (let (($x11473 (= (used_gas_t x_0 x_1 w_2 5) (+ 3 (used_gas_t x_0 x_1 w_2 4)))))
 (let (($x4002 (= (stack_t x_0 x_1 w_2 5 (bvadd (_ bv63 6) (sc_t 4))) (stack_t x_0 x_1 w_2 4 (bvadd (_ bv63 6) (sc_t 4))))))
 (let (($x8118 (= (stack_t x_0 x_1 w_2 5 (bvadd (_ bv62 6) (sc_t 4))) (stack_t x_0 x_1 w_2 4 (bvadd (_ bv62 6) (sc_t 4))))))
 (let (($x6947 (= (stack_t x_0 x_1 w_2 5 (bvadd (_ bv61 6) (sc_t 4))) (stack_t x_0 x_1 w_2 4 (bvadd (_ bv61 6) (sc_t 4))))))
 (let ((?x4818 (sc_t 4)))
 (let ((?x8283 (bvadd (_ bv60 6) ?x4818)))
 (let ((?x8795 (stack_t x_0 x_1 w_2 4 ?x8283)))
 (let (($x7882 (not (= ((_ extract 6 6) (bvadd (_ bv1 7) (concat (_ bv0 1) (sc_t 3)))) (_ bv0 1)))))
 (let (($x3614 (exc_halt_t 3)))
 (let (($x3090 (forall ((w (_ BitVec 256)) )(let ((?x7555 (storage_t x_0 x_1 w_2 3 w)))
 (let ((?x4195 (storage_t x_0 x_1 w_2 4 w)))
 (= ?x4195 ?x7555))))
 ))
 (let (($x11535 (forall ((n (_ BitVec 6)) )(let ((?x6497 (stack_t x_0 x_1 w_2 3 n)))
 (let ((?x9880 (stack_t x_0 x_1 w_2 4 n)))
 (or (= ?x9880 ?x6497) (bvsle (sc_t 3) n)))))
 ))
 (let (($x4413 (= ?x4818 (bvadd (_ bv1 6) (sc_t 3)))))
 (let ((?x10677 (used_gas_t x_0 x_1 w_2 4)))
 (let (($x678 (= $x3614 (or (exc_halt_t 2) (not (bvsle (_ bv0 6) (bvadd (_ bv61 6) (sc_t 2))))))))
 (let (($x8810 (forall ((w (_ BitVec 256)) )(let ((?x194 (storage_t x_0 x_1 w_2 2 w)))
 (let ((?x7555 (storage_t x_0 x_1 w_2 3 w)))
 (= ?x7555 ?x194))))
 ))
 (let (($x10889 (forall ((n (_ BitVec 6)) )(let ((?x3342 (stack_t x_0 x_1 w_2 2 n)))
 (let ((?x6497 (stack_t x_0 x_1 w_2 3 n)))
 (or (= ?x6497 ?x3342) (bvsle (bvadd (_ bv61 6) (sc_t 2)) n)))))
 ))
 (let ((?x2714 (sc_t 2)))
 (let ((?x11304 (sc_t 3)))
 (let (($x5656 (= ?x11304 ?x2714)))
 (let ((?x8341 (used_gas_t x_0 x_1 w_2 3)))
 (let (($x3879 (= (stack_t x_0 x_1 w_2 3 (bvadd (_ bv62 6) ?x11304)) (stack_t x_0 x_1 w_2 2 (bvadd (_ bv62 6) ?x2714)))))
 (let (($x10179 (= (stack_t x_0 x_1 w_2 3 (bvadd (_ bv61 6) ?x11304)) (stack_t x_0 x_1 w_2 2 (bvadd (_ bv63 6) ?x2714)))))
 (let (($x3998 (= (stack_t x_0 x_1 w_2 3 (bvadd (_ bv63 6) ?x11304)) (stack_t x_0 x_1 w_2 2 (bvadd (_ bv61 6) ?x2714)))))
 (let (($x1144 (not (= ((_ extract 6 6) (bvadd (_ bv1 7) (concat (_ bv0 1) (sc_t 1)))) (_ bv0 1)))))
 (let (($x8377 (exc_halt_t 1)))
 (let (($x7890 (exc_halt_t 2)))
 (let (($x1163 (forall ((w (_ BitVec 256)) )(let ((?x10389 (storage_t x_0 x_1 w_2 1 w)))
 (let ((?x194 (storage_t x_0 x_1 w_2 2 w)))
 (= ?x194 ?x10389))))
 ))
 (let (($x234 (forall ((n (_ BitVec 6)) )(let ((?x11591 (stack_t x_0 x_1 w_2 1 n)))
 (let ((?x3342 (stack_t x_0 x_1 w_2 2 n)))
 (or (bvsle (sc_t 1) n) (= ?x3342 ?x11591)))))
 ))
 (let (($x6935 (= ?x2714 (bvadd (_ bv1 6) (sc_t 1)))))
 (let ((?x1787 (used_gas_t x_0 x_1 w_2 2)))
 (let (($x6334 (or $x56 (not (= ((_ extract 6 6) (bvadd (_ bv1 7) (concat (_ bv0 1) ?x63))) (_ bv0 1))) (not (bvsle (_ bv0 6) (bvadd (_ bv62 6) ?x63))))))
 (let (($x3224 (= $x8377 $x6334)))
 (let (($x11626 (forall ((w (_ BitVec 256)) )(let ((?x11489 (storage_t x_0 x_1 w_2 0 w)))
 (let ((?x10389 (storage_t x_0 x_1 w_2 1 w)))
 (= ?x10389 ?x11489))))
 ))
 (let (($x3581 (forall ((n (_ BitVec 6)) )(let ((?x63 (sc_t 0)))
 (let ((?x4937 (bvadd (_ bv62 6) ?x63)))
 (let (($x11739 (bvsle ?x4937 n)))
 (let ((?x523 (stack_t x_0 x_1 w_2 0 n)))
 (let ((?x11591 (stack_t x_0 x_1 w_2 1 n)))
 (or (= ?x11591 ?x523) $x11739)))))))
 ))
 (let ((?x7154 (sc_t 1)))
 (let (($x262 (= ?x7154 (bvadd (_ bv1 6) ?x63))))
 (let (($x2791 (= (stack_t x_0 x_1 w_2 1 (bvadd (_ bv63 6) ?x63)) (stack_t x_0 x_1 w_2 0 (bvadd (_ bv63 6) ?x63)))))
 (let ((?x4937 (bvadd (_ bv62 6) ?x63)))
 (let ((?x10238 (stack_t x_0 x_1 w_2 0 ?x4937)))
 (let (($x11317 (exc_halt_s 5)))
 (let (($x9548 (not (= ((_ extract 6 6) (bvadd (_ bv1 7) (concat (_ bv0 1) (sc_s 5)))) (_ bv0 1)))))
 (let (($x9208 (forall ((w (_ BitVec 256)) )(let ((?x3791 (storage_s x_0 x_1 w_2 5 w)))
 (let ((?x2899 (storage_s x_0 x_1 w_2 6 w)))
 (= ?x2899 ?x3791))))
 ))
 (let (($x1212 (forall ((n (_ BitVec 6)) )(let ((?x4612 (stack_s x_0 x_1 w_2 5 n)))
 (let ((?x1297 (stack_s x_0 x_1 w_2 6 n)))
 (or (= ?x1297 ?x4612) (bvsle (bvadd (_ bv63 6) (sc_s 5)) n)))))
 ))
 (let (($x4113 (= ?x926 (bvadd (_ bv1 6) (sc_s 5)))))
 (let (($x61 (= (used_gas_s x_0 x_1 w_2 6) (+ 3 (used_gas_s x_0 x_1 w_2 5)))))
 (let ((?x4319 (sc_s 5)))
 (let ((?x5048 (bvadd (_ bv63 6) ?x4319)))
 (let ((?x3221 (stack_s x_0 x_1 w_2 5 ?x5048)))
 (let (($x7172 (exc_halt_s 4)))
 (let (($x6784 (or (not (bvsle (_ bv0 6) (bvadd (_ bv61 6) (sc_s 4)))) (not (= ((_ extract 6 6) (bvadd (_ bv1 7) (concat (_ bv0 1) (sc_s 4)))) (_ bv0 1))) $x7172)))
 (let (($x10703 (forall ((w (_ BitVec 256)) )(let ((?x4687 (storage_s x_0 x_1 w_2 4 w)))
 (let ((?x3791 (storage_s x_0 x_1 w_2 5 w)))
 (= ?x3791 ?x4687))))
 ))
 (let (($x7749 (forall ((n (_ BitVec 6)) )(let ((?x6983 (stack_s x_0 x_1 w_2 4 n)))
 (let ((?x4612 (stack_s x_0 x_1 w_2 5 n)))
 (or (= ?x4612 ?x6983) (bvsle (bvadd (_ bv61 6) (sc_s 4)) n)))))
 ))
 (let ((?x1104 (used_gas_s x_0 x_1 w_2 5)))
 (let ((?x4305 (sc_s 4)))
 (let ((?x5445 (bvadd (_ bv63 6) ?x4305)))
 (let ((?x2950 (stack_s x_0 x_1 w_2 4 ?x5445)))
 (let ((?x8739 (bvadd (_ bv62 6) ?x4305)))
 (let ((?x11006 (stack_s x_0 x_1 w_2 4 ?x8739)))
 (let ((?x10386 (bvadd (_ bv61 6) ?x4305)))
 (let ((?x1088 (stack_s x_0 x_1 w_2 4 ?x10386)))
 (let (($x11360 (= $x7172 (or (exc_halt_s 3) (not (bvsle (_ bv0 6) (bvadd (_ bv62 6) (sc_s 3))))))))
 (let (($x11493 (forall ((w (_ BitVec 256)) )(let ((?x3834 (storage_s x_0 x_1 w_2 3 w)))
 (let ((?x4687 (storage_s x_0 x_1 w_2 4 w)))
 (= ?x4687 ?x3834))))
 ))
 (let (($x10933 (forall ((n (_ BitVec 6)) )(let ((?x2800 (stack_s x_0 x_1 w_2 3 n)))
 (let ((?x6983 (stack_s x_0 x_1 w_2 4 n)))
 (let ((?x275 (sc_s 3)))
 (let ((?x11737 (bvadd (_ bv62 6) ?x275)))
 (let (($x9168 (bvsle ?x11737 n)))
 (or $x9168 (= ?x6983 ?x2800))))))))
 ))
 (let ((?x3817 (used_gas_s x_0 x_1 w_2 4)))
 (let (($x5208 (not (= ((_ extract 6 6) (bvadd (_ bv1 7) (concat (_ bv0 1) (sc_s 2)))) (_ bv0 1)))))
 (let (($x247 (exc_halt_s 2)))
 (let (($x118 (not (bvsle (_ bv0 6) (bvadd (_ bv61 6) (sc_s 2))))))
 (let (($x292 (exc_halt_s 3)))
 (let (($x8374 (forall ((w (_ BitVec 256)) )(let ((?x2926 (storage_s x_0 x_1 w_2 2 w)))
 (let ((?x3834 (storage_s x_0 x_1 w_2 3 w)))
 (= ?x3834 ?x2926))))
 ))
 (let (($x1994 (forall ((n (_ BitVec 6)) )(let ((?x218 (sc_s 2)))
 (let ((?x3205 (bvadd (_ bv61 6) ?x218)))
 (let (($x6883 (bvsle ?x3205 n)))
 (let ((?x2121 (stack_s x_0 x_1 w_2 2 n)))
 (let ((?x2800 (stack_s x_0 x_1 w_2 3 n)))
 (or (= ?x2800 ?x2121) $x6883)))))))
 ))
 (let ((?x275 (sc_s 3)))
 (let (($x5654 (= ?x275 (bvadd (_ bv1 6) (sc_s 2)))))
 (let ((?x9042 (used_gas_s x_0 x_1 w_2 3)))
 (let ((?x218 (sc_s 2)))
 (let ((?x7971 (bvadd (_ bv63 6) ?x218)))
 (let ((?x4146 (stack_s x_0 x_1 w_2 2 ?x7971)))
 (let ((?x448 (bvadd (_ bv62 6) ?x218)))
 (let ((?x11414 (stack_s x_0 x_1 w_2 2 ?x448)))
 (let ((?x3205 (bvadd (_ bv61 6) ?x218)))
 (let ((?x3489 (stack_s x_0 x_1 w_2 2 ?x3205)))
 (let (($x3276 (= $x247 (or (exc_halt_s 1) (not (bvsle (_ bv0 6) (bvadd (_ bv62 6) (sc_s 1))))))))
 (let (($x7183 (forall ((w (_ BitVec 256)) )(let ((?x3118 (storage_s x_0 x_1 w_2 1 w)))
 (let ((?x2926 (storage_s x_0 x_1 w_2 2 w)))
 (= ?x2926 ?x3118))))
 ))
 (let (($x1614 (forall ((n (_ BitVec 6)) )(let ((?x10659 (stack_s x_0 x_1 w_2 1 n)))
 (let ((?x2121 (stack_s x_0 x_1 w_2 2 n)))
 (or (= ?x2121 ?x10659) (bvsle (bvadd (_ bv62 6) (sc_s 1)) n)))))
 ))
 (let ((?x1264 (used_gas_s x_0 x_1 w_2 2)))
 (let (($x189 (exc_halt_s 1)))
 (let (($x5243 (= $x189 (or $x57 (not (= ((_ extract 6 6) (bvadd (_ bv1 7) (concat (_ bv0 1) ?x72))) (_ bv0 1)))))))
 (let (($x1934 (forall ((w (_ BitVec 256)) )(let ((?x2396 (storage_s x_0 x_1 w_2 0 w)))
 (let ((?x3118 (storage_s x_0 x_1 w_2 1 w)))
 (= ?x3118 ?x2396))))
 ))
 (let (($x10762 (forall ((n (_ BitVec 6)) )(let ((?x9081 (stack_s x_0 x_1 w_2 0 n)))
 (let ((?x10659 (stack_s x_0 x_1 w_2 1 n)))
 (or (bvsle (sc_s 0) n) (= ?x10659 ?x9081)))))
 ))
 (let ((?x154 (sc_s 1)))
 (let (($x8600 (= ?x154 (bvadd (_ bv1 6) ?x72))))
 (let (($x5112 (forall ((w (_ BitVec 256)) )(let ((?x2396 (storage_s x_0 x_1 w_2 0 w)))
 (= ?x2396 (_ bv0 256))))
 ))
 (let (($x5500 (= ?x4849 0)))
 (let (($x4855 (not $x57)))
 (let (($x1949 (= (stack_s x_0 x_1 w_2 0 (_ bv1 6)) x_1)))
 (let (($x11318 (= (stack_s x_0 x_1 w_2 0 (_ bv0 6)) x_0)))
 (let (($x11128 (= ?x72 (_ bv2 6))))
 (and $x11128 $x11318 $x1949 $x4855 $x5500 $x5112 (= (stack_s x_0 x_1 w_2 1 ?x72) w_2) (= (used_gas_s x_0 x_1 w_2 1) (+ 3 ?x4849)) $x8600 $x10762 $x1934 $x5243 (= ?x4146 (stack_s x_0 x_1 w_2 1 (bvadd (_ bv62 6) ?x154))) (= ?x11414 (stack_s x_0 x_1 w_2 1 (bvadd (_ bv63 6) ?x154))) (= ?x1264 (+ 3 (used_gas_s x_0 x_1 w_2 1))) (= ?x218 ?x154) $x1614 $x7183 $x3276 (= (stack_s x_0 x_1 w_2 3 (bvadd (_ bv63 6) ?x275)) ?x3489) (= (stack_s x_0 x_1 w_2 3 ?x3205) ?x3489) (= (stack_s x_0 x_1 w_2 3 ?x448) ?x11414) (= (stack_s x_0 x_1 w_2 3 ?x7971) ?x4146) (= ?x9042 (+ 3 ?x1264)) $x5654 $x1994 $x8374 (= $x292 (or $x118 $x247 $x5208)) (= ?x2950 (stack_s x_0 x_1 w_2 3 (bvadd (_ bv62 6) ?x275))) (= ?x11006 (stack_s x_0 x_1 w_2 3 (bvadd (_ bv63 6) ?x275))) (= ?x3817 (+ 3 ?x9042)) (= ?x4305 ?x275) $x10933 $x11493 $x11360 (= ?x3221 ?x1088) (= (stack_s x_0 x_1 w_2 5 ?x10386) ?x1088) (= (stack_s x_0 x_1 w_2 5 ?x8739) ?x11006) (= (stack_s x_0 x_1 w_2 5 ?x5445) ?x2950) (= ?x1104 (+ 3 ?x3817)) (= ?x4319 (bvadd (_ bv1 6) ?x4305)) $x7749 $x10703 (= $x11317 $x6784) (= (stack_s x_0 x_1 w_2 6 (bvadd (_ bv63 6) ?x926)) ?x3221) (= (stack_s x_0 x_1 w_2 6 ?x5048) ?x3221) $x61 $x4113 $x1212 $x9208 (= $x772 (or $x9548 (not (bvsle (_ bv0 6) ?x5048)) $x11317)) (= (stack_t x_0 x_1 w_2 1 (bvadd (_ bv63 6) ?x7154)) ?x10238) (= (stack_t x_0 x_1 w_2 1 ?x4937) ?x10238) $x2791 (= (used_gas_t x_0 x_1 w_2 1) (+ 3 ?x11438)) $x262 $x3581 $x11626 $x3224 (= (stack_t x_0 x_1 w_2 2 ?x7154) w_2) (= ?x1787 (+ 3 (used_gas_t x_0 x_1 w_2 1))) $x6935 $x234 $x1163 (= $x7890 (or $x8377 $x1144)) $x3998 $x10179 $x3879 (= ?x8341 (+ 3 ?x1787)) $x5656 $x10889 $x8810 $x678 (= (stack_t x_0 x_1 w_2 4 ?x11304) w_2) (= ?x10677 (+ 3 ?x8341)) $x4413 $x11535 $x3090 (= $x7854 (or $x3614 $x7882)) (= (stack_t x_0 x_1 w_2 5 (bvadd (_ bv63 6) ?x8961)) ?x8795) (= (stack_t x_0 x_1 w_2 5 ?x8283) ?x8795) $x6947 $x8118 $x4002 $x11473 (= ?x8961 (bvadd (_ bv1 6) ?x4818)) $x199 $x3673 (= $x1885 $x150) $x73 $x2835 $x58 $x7221 $x8026 (not (and $x5889 $x7446 $x11108 $x4152)))))))))))))))))))))))))))))))))))))))))))))))))))))))))))))))))))))))))))))))))))))))))))))))))))))))))))))))))))))))))))
 )
(check-sat)
(get-proof)
